WARNING: for repeatability, setting FPU to use double precision
============================[ Problem Statistics ]=============================
|                                                                             |
|  Number of symmetries:          99                                          |
|  Number of invertingSyms:        0                                          |
|  Number of variables:          2550                                         |
|  Number of clauses:           63801                                         |
|  Parse time:                   0.00 s                                       |
|                                                                             |
============================[ Search Statistics ]==============================
| Conflicts |          ORIGINAL         |          LEARNT          | Progress |
|           |    Vars  Clauses Literals |    Limit  Clauses Lit/Cl |          |
===============================================================================
|       100 |    2550    63801   130050 |    23393      100    682 |  0.000 % |
|       250 |    2550    63801   130050 |    25733      250    531 |  0.000 % |
|       475 |    2550    63801   130050 |    28306      475    496 |  0.000 % |
|       812 |    2550    63801   130050 |    31137      812    420 |  0.000 % |
|      1318 |    2550    63801   130050 |    34250     1318    354 |  0.000 % |
|      2077 |    2550    63801   130050 |    37675     2077    337 |  0.000 % |
|      3216 |    2550    63801   130050 |    41443     3216    325 |  0.000 % |
|      4924 |    2550    63801   130050 |    45587     4924    298 |  0.001 % |
|      7486 |    2550    63801   130050 |    50146     7486    293 |  0.000 % |
|     11330 |    2550    63801   130050 |    55161    11330    290 |  0.000 % |
|     17096 |    2550    63801   130050 |    60677    17096    290 |  0.000 % |
|     25745 |    2550    63801   130050 |    66744    25745    286 |  0.000 % |
|     38719 |    2550    63801   130050 |    73419    38719    285 |  0.000 % |
|     58180 |    2550    63801   130050 |    80761    58180    313 |  0.000 % |
|     87372 |    2550    63801   130050 |    88837    18299    322 |  0.000 % |
|    131161 |    2550    63801   130050 |    97721    62088    303 |  0.000 % |
|    196845 |    2550    63801   130050 |   107493    42748    324 |  0.000 % |
|    295371 |    2550    63801   130050 |   118242    46551    280 |  0.000 % |
|    443160 |    2550    63801   130050 |   130067    88801    354 |  0.000 % |
|    664843 |    2550    63801   130050 |   143073    74875    324 |  0.000 % |
|    997368 |    2550    63801   130050 |   157381   144793    384 |  0.000 % |
|   1496156 |    2550    63801   130050 |   173119    66910    394 |  0.000 % |
|   2244338 |    2550    63801   130050 |   190431   171739    439 |  0.000 % |
|   3366612 |    2550    63801   130050 |   209474    58260    315 |  0.000 % |
|   5050023 |    2550    63801   130050 |   230421   176461    560 |  0.000 % |
|   7575139 |    2550    63801   130050 |   253463   106695    355 |  0.000 % |
|  11362814 |    2550    63801   130050 |   278810    77056    580 |  0.000 % |
|  17044326 |    2550    63801   130050 |   306691   189211    374 |  0.000 % |
===============================================================================
restarts              : 32766
conflicts             : 22891377       (4519 /sec)
symconflicts          : 538413         (106 /sec)
decisions             : 71731629       (0.00 % random) (14162 /sec)
propagations          : 676359950      (133534 /sec)
sympropagations       : 2821411        (557 /sec)
conflict literals     : 9417535441     (2.13 % deleted)
Memory used           : 1543.00 MB
CPU time              : 5065.09 s

INDETERMINATE
